1
1000
120
493 1
491 1
491 1
471 1
469 1
468 1
465 1
461 1
459 1
457 1
455 1
453 1
451 1
448 1
441 1
429 1
428 1
427 1
425 1
420 1
404 1
402 1
397 1
391 1
390 1
380 1
380 1
378 1
378 1
377 1
375 1
375 1
374 1
373 1
371 1
370 1
370 1
366 1
364 1
363 1
360 1
360 1
359 1
359 1
358 1
357 1
357 1
350 1
339 1
336 1
330 1
327 1
326 1
325 1
325 1
323 1
323 1
321 1
320 1
319 1
318 1
311 1
311 1
304 1
303 1
303 1
301 1
300 1
299 1
299 1
299 1
297 1
297 1
297 1
295 1
292 1
292 1
290 1
289 1
289 1
286 1
285 1
285 1
284 1
281 1
281 1
278 1
277 1
276 1
275 1
273 1
271 1
269 1
269 1
266 1
265 1
263 1
262 1
260 1
260 1
260 1
260 1
258 1
258 1
257 1
257 1
257 1
257 1
255 1
254 1
254 1
254 1
253 1
253 1
252 1
252 1
252 1
251 1
250 1
250 1
